Route #1: 17 12 40 32 9 39 72 58 10 31 55 25 50 18 24 49 3 44 51
Route #2: 67 34 46 8 54 19 14 59 66 65 38 11 53 35 7 26
Route #3: 4 45 29 48 30 74 21 47 36 69 71 60 70 20 37 5 15 57 13 27 52
Route #4: 75 68 2 62 28 61 22 64 42 41 56 23 43 1 73 33 63 16 6
cost 602
